;; ===================== PROJECTED CANON (QE) =====================
;; Each clause below is entailed by Proj = ∃W.F over the canonical vocabulary.
;; Units appear first for clarity; OR-clauses (SAT-filtered) follow.
;; ==================================================================

;; Unit Bool constraints (entailed)
(assert (not patient_has_finding_of_delirium_now))
(assert (not patient_has_finding_of_dementia_now))
(assert (not patient_has_taken_corticosteroid_and_corticosteroid_derivative_containing_product_inthepast1weeks))
(assert (not patient_is_exposed_to_dronabinol_inthepast1weeks))
(assert (not patient_is_exposed_to_dronabinol_now))
(assert (not patient_is_exposed_to_megestrol_acetate_inthepast1weeks))
(assert (not patient_is_exposed_to_testosterone_inthepast1weeks))
(assert (not patient_is_exposed_to_testosterone_now))
(assert (not patient_is_pregnant_now))
(assert (not patient_is_lactating_now))
